data;

param num_top:=6;

#nodes and edges of the physical network
param n := 10;

set E := (1,2) (1,3) (1,7) (2,4) (2,7) (3,5) (4,8) (5,6) (5,7) (6,7) (6,9) (7,8) (7,9) (8,10) (9,10) ;

#nodes and edges of the virtual networks
set Nl[1] := 2 7 9 3 ;
set Nl[2] := 2 10 1 5 ;
set Nl[3] := 6 1 8 2 ;
set Nl[4] := 8 4 9 5 ;
set Nl[5] := 1 6 3 10 ;
set Nl[6] := 5 1 2 7 ;

set El[1] := (2,7) (7,9) (3,9) (2,3) (2,9) (3,7) ;
set El[2] := (2,10) (1,10) (1,5) (2,5) (1,2) (5,10) ;
set El[3] := (1,6) (1,8) (2,8) (2,6) (1,2) (6,8) ;
set El[4] := (4,8) (4,9) (5,9) (5,8) (8,9) (4,5) ;
set El[5] := (1,6) (3,6) (3,10) (1,10) (6,10) (1,3) ;
set El[6] := (1,5) (1,2) (2,7) (5,7) (1,7) (2,5) ;
